
Gurobi 11.0.3 (linux64) logging started Mon Aug 25 17:04:26 2025

Set parameter LogFile to value "/home/yihong/Coding/OR_SUC/SUC_epstheta_results_bigM100000_thread4/case24_ieee_rts_theta0.001_epsilon0.1_gurobi_seed270000_num_gen100_N_WDR50_load_scaling_factor1_proposed_eps_T4quadra_cost_bc1.03.txt"
Set parameter TimeLimit to value 3600
Gurobi Optimizer version 11.0.3 build v11.0.3rc0 (linux64 - "Ubuntu 20.04.6 LTS")

CPU model: AMD EPYC 7532 32-Core Processor, instruction set [SSE2|AVX|AVX2]
Thread count: 64 physical cores, 128 logical processors, using up to 4 threads

Academic license 2399124 - for non-commercial use only - registered to yi___@ed.ac.uk
Optimize a model with 9128 rows, 5011 columns and 217718 nonzeros
Model fingerprint: 0xe867571b
Model has 400 quadratic constraints
Variable types: 4611 continuous, 400 integer (400 binary)
Coefficient statistics:
  Matrix range     [3e-04, 2e+03]
  QMatrix range    [2e-03, 8e-03]
  QLMatrix range   [2e-01, 6e+01]
  Objective range  [1e+00, 1e+00]
  Bounds range     [1e+00, 1e+00]
  RHS range        [5e-02, 9e+03]
Presolve removed 7554 rows and 2251 columns
Presolve time: 0.07s
Presolved: 1574 rows, 2760 columns, 8977 nonzeros
Presolved model has 400 quadratic constraint(s)
Variable types: 2360 continuous, 400 integer (400 binary)

Root relaxation: objective 3.572972e+03, 1297 iterations, 0.02 seconds (0.02 work units)

    Nodes    |    Current Node    |     Objective Bounds      |     Work
 Expl Unexpl |  Obj  Depth IntInf | Incumbent    BestBd   Gap | It/Node Time

     0     0 3572.97196    0    8          - 3572.97196      -     -    0s
     0     0 74036.3209    0  104          - 74036.3209      -     -    0s
     0     0 74040.0222    0  104          - 74040.0222      -     -    0s
     0     0 129507.664    0   60          - 129507.664      -     -    0s
     0     0 129508.987    0   60          - 129508.987      -     -    0s
     0     0 129536.952    0   32          - 129536.952      -     -    0s
     0     0 129537.230    0   32          - 129537.230      -     -    0s
     0     0 129537.301    0   32          - 129537.301      -     -    0s
     0     2 129537.301    0   32          - 129537.301      -     -    0s
H   61    63                    129547.59191 129540.491  0.01%   7.6    0s
*   61    63              17    129547.59191 129540.491  0.01%   7.6    0s

Cutting planes:
  Gomory: 27
  Implied bound: 105
  MIR: 47
  Flow cover: 84

Explored 98 nodes (3868 simplex iterations) in 0.68 seconds (0.57 work units)
Thread count was 4 (of 128 available processors)

Solution count 2: 129548 129548 

Optimal solution found (tolerance 1.00e-03)
Warning: max constraint violation (6.2736e-08) exceeds tolerance
Best objective 1.295475919056e+05, best bound 1.295404911732e+05, gap 0.0055%

Gurobi 11.0.3 (linux64) logging started Mon Aug 25 17:04:27 2025

Set parameter LogFile to value "/home/yihong/Coding/OR_SUC/SUC_epstheta_results_bigM100000_thread4/case24_ieee_rts_theta0.001_epsilon0.1_gurobi_seed270000_num_gen100_N_WDR50_load_scaling_factor1_proposed_eps_T4quadra_cost_bc1.03.txt"
Set parameter TimeLimit to value 3600
Gurobi Optimizer version 11.0.3 build v11.0.3rc0 (linux64 - "Ubuntu 20.04.6 LTS")

CPU model: AMD EPYC 7532 32-Core Processor, instruction set [SSE2|AVX|AVX2]
Thread count: 64 physical cores, 128 logical processors, using up to 4 threads

Academic license 2399124 - for non-commercial use only - registered to yi___@ed.ac.uk
Optimize a model with 9128 rows, 5012 columns and 218907 nonzeros
Model fingerprint: 0x0e567b0e
Model has 401 quadratic constraints
Variable types: 4612 continuous, 400 integer (400 binary)
Coefficient statistics:
  Matrix range     [3e-04, 2e+03]
  QMatrix range    [2e-03, 5e+01]
  QLMatrix range   [2e-01, 6e+01]
  Objective range  [1e+00, 1e+00]
  Bounds range     [1e-01, 1e+00]
  RHS range        [1e+00, 1e+05]
  QRHS range       [5e-02, 5e-02]
Presolve removed 6956 rows and 1954 columns
Presolve time: 0.07s
Presolved: 2574 rows, 3458 columns, 13668 nonzeros
Presolved model has 400 quadratic constraint(s)
Presolved model has 1 bilinear constraint(s)

Solving non-convex MIQCP

Variable types: 3054 continuous, 404 integer (404 binary)

Root relaxation: objective 1.515352e-05, 2797 iterations, 0.06 seconds (0.08 work units)

    Nodes    |    Current Node    |     Objective Bounds      |     Work
 Expl Unexpl |  Obj  Depth IntInf | Incumbent    BestBd   Gap | It/Node Time

     0     0    0.00002    0    5          -    0.00002      -     -    0s
     0     0    0.00002    0    5          -    0.00002      -     -    0s
     0     0    0.00002    0    5          -    0.00002      -     -    0s
     0     0    0.00002    0    5          -    0.00002      -     -    0s
     0     0    0.00002    0    5          -    0.00002      -     -    0s
     0     0    0.00002    0    5          -    0.00002      -     -    0s
H    0     0                       0.0483283    0.00002   100%     -    0s
H    0     0                       0.0331135    0.00002   100%     -    0s
     0     2    0.00002    0    5    0.03311    0.00002   100%     -    0s
H    5     6                       0.0016697    0.00002  99.1%   104    0s
*    5     6               2       0.0016697    0.00002  99.1%   193    0s
H   58    44                       0.0016697    0.00002  99.1%   125    1s
H   65    44                       0.0004467    0.00002  96.6%   120    1s
*   65    44              14       0.0004467    0.00002  96.6%   121    1s
H   74    44                       0.0004035    0.00002  96.2%   108    1s
*   74    44              16       0.0004035    0.00002  96.2%   108    1s
H   87    36                       0.0004032    0.00002  96.2%  97.2    1s
*   87    36              18       0.0004032    0.00002  96.2%  97.3    1s
H  100    28                       0.0004031    0.00002  96.2%  89.5    1s
*  100    28              19       0.0004031    0.00002  96.2%  89.5    1s
H  209    74                       0.0003868    0.00014  63.9%  50.0    2s
*  209    74              23       0.0003868    0.00014  63.9%  50.0    2s
H  213    74                       0.0003860    0.00014  63.9%  49.1    2s
*  213    74              16       0.0003860    0.00014  63.9%  49.1    2s
H  255    39                       0.0003853    0.00038  0.73%  41.7    2s
*  255    39              18       0.0003853    0.00038  0.73%  41.8    2s

Cutting planes:
  Implied bound: 18
  MIR: 2
  Flow cover: 11
  Inf proof: 8

Explored 278 nodes (14004 simplex iterations) in 2.33 seconds (2.56 work units)
Thread count was 4 (of 128 available processors)

Solution count 10: 0.000385315 0.000386023 0.000386797 ... 0.0331135

Optimal solution found (tolerance 1.00e-03)
Warning: max constraint violation (1.0662e-09) exceeds tolerance
Best objective 3.853152025580e-04, best bound 3.852006463520e-04, gap 0.0297%
